NAME : random_17
COMMENT : 50 random nodes
TYPE : TSP
DIMENSION : 50
EDGE_WEIGHT_TYPE : EUC_2D
NODE_COORD_SECTION
1 74 892
2 357 734
3 145 209
4 961 21
5 318 334
6 388 236
7 126 351
8 89 278
9 893 467
10 542 275
11 978 745
12 744 473
13 508 622
14 267 8
15 255 104
16 588 535
17 853 755
18 813 801
19 684 291
20 415 333
21 78 168
22 767 61
23 366 215
24 644 336
25 625 883
26 230 589
27 980 381
28 59 615
29 802 113
30 864 837
31 595 931
32 877 51
33 312 726
34 484 486
35 961 517
36 303 56
37 827 237
38 293 843
39 828 218
40 750 863
41 702 912
42 83 637
43 259 855
44 996 560
45 426 641
46 422 674
47 484 717
48 175 597
49 971 582
50 720 163
EOF